out/bwp_9_12_1_lp.out
3
-0 0    0 0
3 1    3 1
0 2    0 2
3 2    3 2
0 1    2 1
4 0    4 1
5 0    6 0
5 1    5 2
6 1    6 2
1 2    2 2
7 2    8 2
7 0    8 1
