out/bwp_9_12_1_lp.log
Tried aggregator 2 times.
MIP Presolve eliminated 17 rows and 6 columns.
MIP Presolve modified 284 coefficients.
Aggregator did 284 substitutions.
Reduced MIP has 1472 rows, 1332 columns, and 3655 nonzeros.
Reduced MIP has 799 binaries, 25 generals, 0 SOSs, and 396 indicators.
Presolve time = 0.01 sec. (4.21 ticks)
Found incumbent of value 21.000000 after 0.02 sec. (6.85 ticks)
Probing fixed 63 vars, tightened 216 bounds.
Probing time = 0.06 sec. (19.91 ticks)
Tried aggregator 3 times.
MIP Presolve eliminated 100 rows and 85 columns.
MIP Presolve modified 578 coefficients.
Aggregator did 411 substitutions.
Reduced MIP has 978 rows, 836 columns, and 2697 nonzeros.
Reduced MIP has 598 binaries, 227 generals, 0 SOSs, and 337 indicators.
Presolve time = 0.02 sec. (5.77 ticks)
Probing time = 0.01 sec. (4.73 ticks)
Tried aggregator 2 times.
MIP Presolve eliminated 17 rows and 0 columns.
Aggregator did 1 substitutions.
Reduced MIP has 963 rows, 835 columns, and 2669 nonzeros.
Reduced MIP has 598 binaries, 226 generals, 0 SOSs, and 334 indicators.
Presolve time = 0.00 sec. (1.90 ticks)
Probing time = 0.01 sec. (2.24 ticks)
Clique table members: 95.
MIP emphasis: balance optimality and feasibility.
MIP search method: dynamic search.
Parallel mode: deterministic, using up to 4 threads.
Root relaxation solution time = 0.00 sec. (2.81 ticks)

        Nodes                                         Cuts/
   Node  Left     Objective  IInf  Best Integer    Best Bound    ItCnt     Gap

*     0+    0                           21.0000        3.0000      317   85.71%
      0     0        3.0000   307       21.0000        3.0000      317   85.71%
      0     0        3.0000   166       21.0000      Cuts: 18      367   85.71%
      0     0        3.0000   293       21.0000      Cuts: 76      448   85.71%
      0     0        3.0000    84       21.0000       Cuts: 7      456   85.71%
*     0+    0                            4.0000        3.0000      456   25.00%
      0     0        3.0000   180        4.0000      Cuts: 35      522   25.00%
*     0+    0                            3.0000        3.0000      522    0.00%
      0     0        cutoff              3.0000        3.0000      522    0.00%
Elapsed time = 0.39 sec. (132.03 ticks, tree = 0.00 MB, solutions = 3)

Implied bound cuts applied:  12
Flow cuts applied:  1
Mixed integer rounding cuts applied:  8
Zero-half cuts applied:  13
Gomory fractional cuts applied:  8

Root node processing (before b&c):
  Real time             =    0.39 sec. (132.09 ticks)
Parallel b&c, 4 threads:
  Real time             =    0.00 sec. (0.00 ticks)
  Sync time (average)   =    0.00 sec.
  Wait time (average)   =    0.00 sec.
                          ------------
Total (root+branch&cut) =    0.39 sec. (132.09 ticks)
